119
10000
930
250
1762
1733
2174
145
1963
1792
1872
5
565
851
1982
1020
631
397
1222
83
1860
431
449
456
1136
1274
526
697
2200
606
215
244
1706
201
2100
37
2129
1354
1482
1361
2214
2416
2457
780
442
1079
539
1184
1291
2181
2116
1812
1510
1160
2143
1936
407
1524
977
1816
1756
2388
448
1924
2168
271
677
1516
305
1773
1762
2161
2249
1708
1358
570
432
2007
258
390
1704
611
1176
1815
1959
1994
122
1918
2369
1352
2313
866
479
1569
680
1575
2
2489
96
2295
1478
2458
1855
2151
2033
1104
1184
866
1891
825
1040
1001
2113
609
265
592
60
1408
1008
669
2060
